NAME          ENERGY_GRID_DISPATCH
ROWS
 N  COST
 E  BUS_1
 E  BUS_2
 E  BUS_3
 E  BUS_4
 E  BUS_5
 L  CARBON_CAP
 G  RENEWABLE_MIN
COLUMNS
    GEN_COAL_1  COST      28.000000000000  BUS_3     1.000000000000
    GEN_COAL_1  CARBON_CAP  0.950000000000
    GEN_GAS_1   COST      45.000000000000  BUS_2     1.000000000000
    GEN_GAS_1   CARBON_CAP  0.420000000000
    GEN_GAS_2   COST      52.000000000000  BUS_4     1.000000000000
    GEN_GAS_2   CARBON_CAP  0.450000000000
    GEN_SOLAR_1 COST       5.000000000000  BUS_1     1.000000000000
    GEN_SOLAR_1 RENEWABLE_MIN 1.00000000000
    GEN_WIND_1  COST       8.000000000000  BUS_5     1.000000000000
    GEN_WIND_1  RENEWABLE_MIN 1.00000000000
    LINE_1_2    BUS_1    -1.000000000000  BUS_2     1.000000000000
    LINE_1_3    BUS_1    -1.000000000000  BUS_3     1.000000000000
    LINE_2_4    BUS_2    -1.000000000000  BUS_4     1.000000000000
    LINE_3_5    BUS_3    -1.000000000000  BUS_5     1.000000000000
    LINE_4_5    BUS_4    -1.000000000000  BUS_5     1.000000000000
RHS
    RHS1        BUS_1     80.000000000000  BUS_2   140.000000000000
    RHS1        BUS_3    110.000000000000  BUS_4   160.000000000000
    RHS1        BUS_5    210.000000000000  CARBON_CAP 280.00000000000
    RHS1        RENEWABLE_MIN 250.00000000000
BOUNDS
 UP BND1        GEN_COAL_1  300.000000000000
 UP BND1        GEN_GAS_1   200.000000000000
 UP BND1        GEN_GAS_2   150.000000000000
 UP BND1        GEN_SOLAR_1 180.000000000000
 UP BND1        GEN_WIND_1  220.000000000000
 LO BND1        LINE_1_2   -100.000000000000
 UP BND1        LINE_1_2    100.000000000000
 LO BND1        LINE_1_3   -150.000000000000
 UP BND1        LINE_1_3    150.000000000000
 LO BND1        LINE_2_4   -120.000000000000
 UP BND1        LINE_2_4    120.000000000000
 LO BND1        LINE_3_5   -180.000000000000
 UP BND1        LINE_3_5    180.000000000000
 LO BND1        LINE_4_5   -100.000000000000
 UP BND1        LINE_4_5    100.000000000000
ENDATA
